NAME 
ROWS
 N  OBJ
 L  R0      
 L  R1      
 L  R2      
 E  R3      
 E  R4      
 E  R5      
 E  R6      
 E  R7      
 E  R8      
 E  R9      
 E  R10     
 E  R11     
 E  R12     
 E  R13     
 E  R14     
 E  R15     
 E  R16     
 E  R17     
COLUMNS
    MARKER    'MARKER'                 'INTORG'
    I0(11)    OBJ       -128
    I0(11)    R0        42
    I0(11)    R1        199
    I0(11)    R2        -96
    I0(11)    R3        6
    I0(11)    R5        8
    I0(11)    R6        16
    I0(11)    R7        3
    I0(11)    R9        5
    I0(11)    R10       15
    I0(11)    R11       -1
    I0(11)    R17       1
    I1(9)     OBJ       -149
    I1(9)     R0        134
    I1(9)     R1        -129
    I1(9)     R2        -186
    I1(9)     R3        4
    I1(9)     R4        3
    I1(9)     R5        11
    I1(9)     R8        6
    I1(9)     R10       18
    I1(9)     R17       1
    I2(11)    OBJ       160
    I2(11)    R0        -68
    I2(11)    R1        -171
    I2(11)    R2        56
    I2(11)    R5        14
    I2(11)    R6        18
    I2(11)    R7        7
    I2(11)    R8        2
    I2(11)    R9        1
    I2(11)    R10       3
    I2(11)    R11       9
    I2(11)    R17       1
    I3(8)     OBJ       15
    I3(8)     R0        97
    I3(8)     R1        37
    I3(8)     R2        24
    I3(8)     R5        2
    I3(8)     R6        18
    I3(8)     R7        8
    I3(8)     R9        11
    I3(8)     R17       1
    I4(10)    OBJ       -31
    I4(10)    R0        -189
    I4(10)    R1        -168
    I4(10)    R2        4
    I4(10)    R3        9
    I4(10)    R6        18
    I4(10)    R7        17
    I4(10)    R8        12
    I4(10)    R9        15
    I4(10)    R10       4
    I4(10)    R17       1
    I5(13)    OBJ       -32
    I5(13)    R0        1
    I5(13)    R1        139
    I5(13)    R2        2
    I5(13)    R3        7
    I5(13)    R4        7
    I5(13)    R5        10
    I5(13)    R6        12
    I5(13)    R7        2
    I5(13)    R8        7
    I5(13)    R9        14
    I5(13)    R10       1
    I5(13)    R11       5
    I5(13)    R17       1
    I6(10)    OBJ       7
    I6(10)    R0        -127
    I6(10)    R1        -117
    I6(10)    R2        -92
    I6(10)    R3        6
    I6(10)    R6        4
    I6(10)    R7        19
    I6(10)    R8        -1
    I6(10)    R10       13
    I6(10)    R11       14
    I6(10)    R17       1
    I7(9)     OBJ       74
    I7(9)     R0        -4
    I7(9)     R1        111
    I7(9)     R2        12
    I7(9)     R3        3
    I7(9)     R4        14
    I7(9)     R5        2
    I7(9)     R8        4
    I7(9)     R10       5
    I7(9)     R17       1
    I8(13)    OBJ       168
    I8(13)    R0        97
    I8(13)    R1        -144
    I8(13)    R2        -5
    I8(13)    R3        19
    I8(13)    R4        17
    I8(13)    R5        1
    I8(13)    R6        15
    I8(13)    R7        6
    I8(13)    R8        15
    I8(13)    R9        6
    I8(13)    R10       14
    I8(13)    R11       7
    I8(13)    R17       1
    MARKER    'MARKER'                 'INTEND'
    C9(13)    OBJ       -4
    C9(13)    R0        2
    C9(13)    R1        -7
    C9(13)    R2        -8
    C9(13)    R3        10
    C9(13)    R4        9
    C9(13)    R5        14
    C9(13)    R6        10
    C9(13)    R7        7
    C9(13)    R8        7
    C9(13)    R11       18
    C9(13)    R13       16
    C9(13)    R15       11
    C9(13)    R16       18
    C10(12)   OBJ       9
    C10(12)   R0        9
    C10(12)   R2        7
    C10(12)   R4        -1
    C10(12)   R5        16
    C10(12)   R7        3
    C10(12)   R9        2
    C10(12)   R10       5
    C10(12)   R11       17
    C10(12)   R12       14
    C10(12)   R13       9
    C10(12)   R14       12
    C10(12)   R16       12
    C11(17)   OBJ       -6
    C11(17)   R0        6
    C11(17)   R1        -3
    C11(17)   R2        8
    C11(17)   R3        10
    C11(17)   R4        -1
    C11(17)   R5        9
    C11(17)   R6        18
    C11(17)   R7        5
    C11(17)   R8        16
    C11(17)   R9        8
    C11(17)   R10       1
    C11(17)   R11       1
    C11(17)   R12       5
    C11(17)   R13       2
    C11(17)   R14       5
    C11(17)   R15       11
    C11(17)   R16       2
    C12(12)   OBJ       7
    C12(12)   R0        9
    C12(12)   R2        -9
    C12(12)   R3        11
    C12(12)   R4        7
    C12(12)   R5        5
    C12(12)   R6        -1
    C12(12)   R8        13
    C12(12)   R9        15
    C12(12)   R10       9
    C12(12)   R11       9
    C12(12)   R12       16
    C12(12)   R13       12
    C13(16)   OBJ       -9
    C13(16)   R0        -6
    C13(16)   R1        1
    C13(16)   R2        -7
    C13(16)   R3        16
    C13(16)   R4        16
    C13(16)   R5        17
    C13(16)   R6        5
    C13(16)   R8        18
    C13(16)   R9        8
    C13(16)   R10       15
    C13(16)   R11       17
    C13(16)   R12       8
    C13(16)   R13       12
    C13(16)   R14       13
    C13(16)   R15       18
    C13(16)   R16       10
    C14(14)   OBJ       2
    C14(14)   R0        -9
    C14(14)   R1        4
    C14(14)   R2        6
    C14(14)   R3        17
    C14(14)   R4        15
    C14(14)   R5        12
    C14(14)   R6        -1
    C14(14)   R8        12
    C14(14)   R9        3
    C14(14)   R10       4
    C14(14)   R11       16
    C14(14)   R13       5
    C14(14)   R14       10
    C14(14)   R15       14
    C15(1)    R3        1
    C16(1)    R4        1
    C17(1)    R5        1
    C18(1)    R6        1
    C19(1)    R7        1
    C20(1)    R8        1
    C21(1)    R9        1
    C22(1)    R10       1
    C23(1)    R11       1
    C24(1)    R12       1
    C25(1)    R13       1
    C26(1)    R14       1
    C27(1)    R15       1
    C28(1)    R16       1
    C29(1)    R17       1
RHS
    RHS1      R0        1.7456321839080462e+02
    RHS1      R1        2.0732183908045977e+02
    RHS1      R2        -2.8180076628352487e+02
    RHS1      R3        54
    RHS1      R4        79
    RHS1      R5        63
    RHS1      R6        54
    RHS1      R7        90
    RHS1      R8        91
    RHS1      R9        83
    RHS1      R10       63
    RHS1      R11       51
    RHS1      R12       85
    RHS1      R13       83
    RHS1      R14       82
    RHS1      R15       64
    RHS1      R16       86
    RHS1      R17       3
BOUNDS
 UP BND1      I0(11)    1
 UP BND1      I1(9)     1
 UP BND1      I2(11)    1
 UP BND1      I3(8)     1
 UP BND1      I4(10)    1
 UP BND1      I5(13)    1
 UP BND1      I6(10)    1
 UP BND1      I7(9)     1
 UP BND1      I8(13)    1
ENDATA
